                               nkstot now = 49
K-POINTS DIRECT COORDINATES
 KPOINTS    DIRECT_X    DIRECT_Y    DIRECT_Z  WEIGHT
       1  0.00000000  0.00000000  0.00000000  0.0204
       2  0.14285714  0.00000000  0.00000000  0.0204
       3  0.28571429  0.00000000  0.00000000  0.0204
       4  0.42857143  0.00000000  0.00000000  0.0204
       5  0.57142857  0.00000000  0.00000000  0.0204
       6  0.71428571  0.00000000  0.00000000  0.0204
       7  0.85714286  0.00000000  0.00000000  0.0204
       8  0.00000000  0.14285714  0.00000000  0.0204
       9  0.14285714  0.14285714  0.00000000  0.0204
      10  0.28571429  0.14285714  0.00000000  0.0204
      11  0.42857143  0.14285714  0.00000000  0.0204
      12  0.57142857  0.14285714  0.00000000  0.0204
      13  0.71428571  0.14285714  0.00000000  0.0204
      14  0.85714286  0.14285714  0.00000000  0.0204
      15  0.00000000  0.28571429  0.00000000  0.0204
      16  0.14285714  0.28571429  0.00000000  0.0204
      17  0.28571429  0.28571429  0.00000000  0.0204
      18  0.42857143  0.28571429  0.00000000  0.0204
      19  0.57142857  0.28571429  0.00000000  0.0204
      20  0.71428571  0.28571429  0.00000000  0.0204
      21  0.85714286  0.28571429  0.00000000  0.0204
      22  0.00000000  0.42857143  0.00000000  0.0204
      23  0.14285714  0.42857143  0.00000000  0.0204
      24  0.28571429  0.42857143  0.00000000  0.0204
      25  0.42857143  0.42857143  0.00000000  0.0204
      26  0.57142857  0.42857143  0.00000000  0.0204
      27  0.71428571  0.42857143  0.00000000  0.0204
      28  0.85714286  0.42857143  0.00000000  0.0204
      29  0.00000000  0.57142857  0.00000000  0.0204
      30  0.14285714  0.57142857  0.00000000  0.0204
      31  0.28571429  0.57142857  0.00000000  0.0204
      32  0.42857143  0.57142857  0.00000000  0.0204
      33  0.57142857  0.57142857  0.00000000  0.0204
      34  0.71428571  0.57142857  0.00000000  0.0204
      35  0.85714286  0.57142857  0.00000000  0.0204
      36  0.00000000  0.71428571  0.00000000  0.0204
      37  0.14285714  0.71428571  0.00000000  0.0204
      38  0.28571429  0.71428571  0.00000000  0.0204
      39  0.42857143  0.71428571  0.00000000  0.0204
      40  0.57142857  0.71428571  0.00000000  0.0204
      41  0.71428571  0.71428571  0.00000000  0.0204
      42  0.85714286  0.71428571  0.00000000  0.0204
      43  0.00000000  0.85714286  0.00000000  0.0204
      44  0.14285714  0.85714286  0.00000000  0.0204
      45  0.28571429  0.85714286  0.00000000  0.0204
      46  0.42857143  0.85714286  0.00000000  0.0204
      47  0.57142857  0.85714286  0.00000000  0.0204
      48  0.71428571  0.85714286  0.00000000  0.0204
      49  0.85714286  0.85714286  0.00000000  0.0204

